c colouring generated by benchmark framework
p edge 25 160
v 1 0
v 2 3
v 3 2
v 4 4
v 5 1
v 6 2
v 7 4
v 8 1
v 9 0
v 10 3
v 11 1
v 12 0
v 13 3
v 14 2
v 15 4
v 16 3
v 17 2
v 18 4
v 19 1
v 20 0
v 21 4
v 22 1
v 23 0
v 24 3
v 25 2
